c turning on binary mode checking
c parsing input formula with 202048 variables and 780975 clauses
c finished parsing, read 16767708 bytes from proof file
c detected empty clause; start verification via backward checking
c 7524 of 780975 clauses in core                            
c 9642 of 455265 lemmas in core using 91396 resolution steps
c 0 RAT lemmas in core; 595 redundant literals in core lemmas
s VERIFIED
c verification time: 1.700 seconds
